% Dimensiones
filas = 5;
columnas = 5;

%Pistas
tipo_celda = array2d(1..filas, 1..columnas, [
    NEGRA,  NEGRA,   NEGRA,   SUMA_V,   SUMA_V,
    NEGRA,  NEGRA,   SUMA_HV, BLANCA,   BLANCA,
    NEGRA,  SUMA_HV, BLANCA,  BLANCA,   BLANCA,
    SUMA_H, BLANCA,  BLANCA,  BLANCA,   NEGRA,
    SUMA_H, BLANCA,  BLANCA,  NEGRA,    NEGRA
]);

%Pistas  horizontales
pistas_h = array2d(1..filas, 1..columnas, [
     0,   0,   0,   0,   0,   
     0,   0,  11,   0,   0,  
     0,  10,   0,   0,   0,  
     6,   0,   0,   0,   0,  
     4,   0,   0,   0,   0   
]);


%Pistas verticales
pistas_v = array2d(1..filas, 1..columnas, [
    0,    0,   0,   8,  11,  
    0,    0,   9,   0,   0,  
    0,    3,   0,   0,   0,  
    0,    0,   0,   0,   0,   
    0,    0,   0,   0,   0    
]);